data/lp_files/q3/48_7.lp
\ Model foo
\ LP format - for model browsing. Use MPS format to capture full model detail.
Minimize
  z
Subject To
 allocateEach[1]: x[1,1] + x[2,1] + x[3,1] = 1
 allocateEach[2]: x[1,2] + x[2,2] + x[3,2] = 1
 allocateEach[3]: x[1,3] + x[2,3] + x[3,3] = 1
 allocateEach[4]: x[1,4] + x[2,4] + x[3,4] = 1
 allocateEach[5]: x[1,5] + x[2,5] + x[3,5] = 1
 allocateEach[6]: x[1,6] + x[2,6] + x[3,6] = 1
 allocateEach[7]: x[1,7] + x[2,7] + x[3,7] = 1
 allocateEach[8]: x[1,8] + x[2,8] + x[3,8] = 1
 allocateAllCash: cashProportion[1] + cashProportion[2] + cashProportion[3]
   = 1
 findWorstP[1,2]: z + 0.1166362116558454 cashProportion[1]
   - 0.1166362116558454 cashProportion[2] + 0.1297772248357373 x[1,1]
   + 0.1652346331791143 x[1,2] + 0.0710508922670192 x[1,3]
   + 0.1481279888029237 x[1,4] + 0.1489444422845146 x[1,5]
   + 0.0688736829827767 x[1,6] + 0.0580070759301738 x[1,7]
   + 0.093347848061895 x[1,8] - 0.1297772248357373 x[2,1]
   - 0.1652346331791143 x[2,2] - 0.0710508922670192 x[2,3]
   - 0.1481279888029237 x[2,4] - 0.1489444422845146 x[2,5]
   - 0.0688736829827767 x[2,6] - 0.0580070759301738 x[2,7]
   - 0.093347848061895 x[2,8] >= 0
 findWorstP[1,3]: z + 0.1166362116558454 cashProportion[1]
   - 0.1166362116558454 cashProportion[3] + 0.1297772248357373 x[1,1]
   + 0.1652346331791143 x[1,2] + 0.0710508922670192 x[1,3]
   + 0.1481279888029237 x[1,4] + 0.1489444422845146 x[1,5]
   + 0.0688736829827767 x[1,6] + 0.0580070759301738 x[1,7]
   + 0.093347848061895 x[1,8] - 0.1297772248357373 x[3,1]
   - 0.1652346331791143 x[3,2] - 0.0710508922670192 x[3,3]
   - 0.1481279888029237 x[3,4] - 0.1489444422845146 x[3,5]
   - 0.0688736829827767 x[3,6] - 0.0580070759301738 x[3,7]
   - 0.093347848061895 x[3,8] >= 0
 findWorstP[2,1]: z - 0.1712670910284589 cashProportion[1]
   + 0.1712670910284589 cashProportion[2] - 6.5652384894242569e-04 x[1,1]
   - 0.0689635486541261 x[1,2] - 0.0515799389147375 x[1,3]
   - 0.2149116547255445 x[1,4] - 0.1370422173379385 x[1,5]
   - 0.1146062284132104 x[1,6] - 0.2212485370935975 x[1,7]
   - 0.0197242599834442 x[1,8] + 6.5652384894242569e-04 x[2,1]
   + 0.0689635486541261 x[2,2] + 0.0515799389147375 x[2,3]
   + 0.2149116547255445 x[2,4] + 0.1370422173379385 x[2,5]
   + 0.1146062284132104 x[2,6] + 0.2212485370935975 x[2,7]
   + 0.0197242599834442 x[2,8] >= 0
 findWorstP[2,3]: z + 0.1712670910284589 cashProportion[2]
   - 0.1712670910284589 cashProportion[3] + 6.5652384894242569e-04 x[2,1]
   + 0.0689635486541261 x[2,2] + 0.0515799389147375 x[2,3]
   + 0.2149116547255445 x[2,4] + 0.1370422173379385 x[2,5]
   + 0.1146062284132104 x[2,6] + 0.2212485370935975 x[2,7]
   + 0.0197242599834442 x[2,8] - 6.5652384894242569e-04 x[3,1]
   - 0.0689635486541261 x[3,2] - 0.0515799389147375 x[3,3]
   - 0.2149116547255445 x[3,4] - 0.1370422173379385 x[3,5]
   - 0.1146062284132104 x[3,6] - 0.2212485370935975 x[3,7]
   - 0.0197242599834442 x[3,8] >= 0
 findWorstP[3,1]: z - 0.1833348611238428 cashProportion[1]
   + 0.1833348611238428 cashProportion[3] - 0.1614874568399181 x[1,1]
   - 0.047758731322761 x[1,2] - 0.0703700308613683 x[1,3]
   - 0.1441012008433404 x[1,4] - 0.2569438078650655 x[1,5]
   - 0.0264002200018334 x[1,6] - 0.0699116937085587 x[1,7]
   - 0.0396919974333119 x[1,8] + 0.1614874568399181 x[3,1]
   + 0.047758731322761 x[3,2] + 0.0703700308613683 x[3,3]
   + 0.1441012008433404 x[3,4] + 0.2569438078650655 x[3,5]
   + 0.0264002200018334 x[3,6] + 0.0699116937085587 x[3,7]
   + 0.0396919974333119 x[3,8] >= 0
 findWorstP[3,2]: z - 0.1833348611238428 cashProportion[2]
   + 0.1833348611238428 cashProportion[3] - 0.1614874568399181 x[2,1]
   - 0.047758731322761 x[2,2] - 0.0703700308613683 x[2,3]
   - 0.1441012008433404 x[2,4] - 0.2569438078650655 x[2,5]
   - 0.0264002200018334 x[2,6] - 0.0699116937085587 x[2,7]
   - 0.0396919974333119 x[2,8] + 0.1614874568399181 x[3,1]
   + 0.047758731322761 x[3,2] + 0.0703700308613683 x[3,3]
   + 0.1441012008433404 x[3,4] + 0.2569438078650655 x[3,5]
   + 0.0264002200018334 x[3,6] + 0.0699116937085587 x[3,7]
   + 0.0396919974333119 x[3,8] >= 0
Bounds
 z <= 1
 -infinity <= cashProportion[1] <= 1
 -infinity <= cashProportion[2] <= 1
 -infinity <= cashProportion[3] <= 1
Binaries
 x[1,1] x[1,2] x[1,3] x[1,4] x[1,5] x[1,6] x[1,7] x[1,8] x[2,1] x[2,2]
 x[2,3] x[2,4] x[2,5] x[2,6] x[2,7] x[2,8] x[3,1] x[3,2] x[3,3] x[3,4]
 x[3,5] x[3,6] x[3,7] x[3,8]
End
